GLPSOL--GLPK LP/MIP Solver 5.0
Parameter(s) specified in the command line:
 --lp ../modeles/3_339.lp --log 3_339.log
Reading problem data from '../modeles/3_339.lp'...
1030 rows, 2040 columns, 7134 non-zeros
1017 integer variables, all of which are binary
3079 lines were read
GLPK Integer Optimizer 5.0
1030 rows, 2040 columns, 7134 non-zeros
1017 integer variables, all of which are binary
Preprocessing...
1002 constraint coefficient(s) were reduced
1030 rows, 2037 columns, 7131 non-zeros
1017 integer variables, all of which are binary
Scaling...
 A: min|aij| =  3.481e-05  max|aij| =  4.000e+00  ratio =  1.149e+05
GM: min|aij| =  5.431e-02  max|aij| =  1.841e+01  ratio =  3.390e+02
EQ: min|aij| =  2.950e-03  max|aij| =  1.000e+00  ratio =  3.390e+02
2N: min|aij| =  2.228e-03  max|aij| =  1.767e+00  ratio =  7.934e+02
Constructing initial basis...
Size of triangular part is 1030
Solving LP relaxation...
GLPK Simplex Optimizer 5.0
1030 rows, 2037 columns, 7131 non-zeros
      0: obj =   6.000000000e+00 inf =   1.450e+01 (7)
     56: obj =   4.999521406e-01 inf =   0.000e+00 (0)
*   201: obj =  -1.731962254e+00 inf =   3.266e-16 (0)
OPTIMAL LP SOLUTION FOUND
Integer optimization begins...
Long-step dual simplex will be used
+   201: mip =     not found yet >=              -inf        (1; 0)
+   589: >>>>>  -1.731962254e+00 >=  -1.731962254e+00 < 0.1% (387; 0)
+   589: mip =  -1.731962254e+00 >=     tree is empty   0.0% (0; 773)
INTEGER OPTIMAL SOLUTION FOUND
Time used:   0.7 secs
Memory used: 3.0 Mb (3189811 bytes)
